c instance by G2
c solution = 101000110000111
c Known solution cost is 82
p cnf 15 15
w 9 7 9 0 9 8 1 9 6 1 6 7 2 1 7
14 -3 1 0
-7 10 14 0
8 9 -11 0
-12 13 -9 0
4 6 3 0
-11 4 5 0
-3 14 1 0
-4 -14 -7 0
3 -5 2 0
11 15 5 0
-2 -7 -1 0
11 15 6 0
-15 -5 -1 0
15 -9 -6 0
-12 -8 -9 0
